fitness = 1.0
1 4 5 2 6 2 6 2 6 2 6 2 6 2 6 2 6 2 6 2 6 2 6 2 6 2 6 2 6 2 6 2 6 2 6 2 6 2 6 2 6 2 6 2 6 2 6 2 6 2 6 2 6 2 6 2 6 2 6 2 6 2 6 2 6 2 6 2 6 2 6 2 6 2 6 2 6 2 6 2 6 2 6 2 6 2 6 2 6 2 6 2 6 2 6 4 5 7 8 1 7 8 1 7 8 1 7 8 1 7 8 1 7 8 1 7 8 1 7 8 1 7 8 1 7 8 1 7 8 1 7 8 1 7 8 1 7 8 1 7 8 1 7 8 1 7 8 1 7 8 1 7 8 1 7 8 1 7 8 1 7 8 1 7 8 1 7 8 1 7 8 1 7 8 1 7 8 1 7 